experiments/sat_smt/run/sat-r+/results/kate.res
solved=true
solvingTime=57.35144805908203125
nActions=10