experiments/sat_smt/run/sat-r+/results/kate.out
Timesteps: 1
s UNSATISFIABLE
real 0.12
user 0.02
sys 0.00
Timesteps: 2
s UNSATISFIABLE
real 0.22
user 0.05
sys 0.00
Timesteps: 3
s UNSATISFIABLE
real 0.28
user 0.09
sys 0.01
Timesteps: 4
s UNSATISFIABLE
real 0.39
user 0.27
sys 0.01
Timesteps: 5
s UNSATISFIABLE
real 0.84
user 0.70
sys 0.01
Timesteps: 6
s UNSATISFIABLE
real 1.77
user 1.51
sys 0.01
Timesteps: 7
s UNSATISFIABLE
real 4.12
user 3.89
sys 0.02
Timesteps: 8
s UNSATISFIABLE
real 8.27
user 8.01
sys 0.02
Timesteps: 9
s UNSATISFIABLE
real 20.89
user 20.17
sys 0.05
Timesteps: 10
s SATISFIABLE
real 21.02
user 20.24
sys 0.06
